
******************************************************************************
This program contains Ipopt, a library for large-scale nonlinear optimization.
 Ipopt is released as open source code under the Eclipse Public License (EPL).
         For more information visit http://projects.coin-or.org/Ipopt
******************************************************************************

This is Ipopt version 3.12.6, running with linear solver ma57.

Number of nonzeros in equality constraint Jacobian...:        0
Number of nonzeros in inequality constraint Jacobian.:        2
Number of nonzeros in Lagrangian Hessian.............:       10

Total number of variables............................:        4
                     variables with only lower bounds:        0
                variables with lower and upper bounds:        4
                     variables with only upper bounds:        0
Total number of equality constraints.................:        0
Total number of inequality constraints...............:        1
        inequality constraints with only lower bounds:        1
   inequality constraints with lower and upper bounds:        0
        inequality constraints with only upper bounds:        0

iter    objective    inf_pr   inf_du lg(mu)  ||d||  lg(rg) alpha_du alpha_pr  ls
   0  9.8185961e-01 0.00e+00 1.35e+00  -1.0 0.00e+00    -  0.00e+00 0.00e+00   0
   1  6.6510211e-01 0.00e+00 2.23e-01  -1.0 6.18e-01    -  7.86e-01 1.00e+00f  1
   2  5.5884716e-01 0.00e+00 2.14e+00  -1.0 9.46e+00    -  1.75e-01 5.77e-02f  2
   3  4.7049117e-01 0.00e+00 3.31e-01  -1.0 3.18e-01   0.0 9.96e-01 1.00e+00f  1
   4  3.4212320e-01 0.00e+00 1.85e-01  -1.7 4.95e-01  -0.5 1.00e+00 1.00e+00f  1
   5  2.4017818e-01 0.00e+00 1.30e-01  -2.5 7.18e-01  -1.0 8.17e-01 1.00e+00f  1
   6  2.3846870e-01 0.00e+00 3.13e+00  -2.5 1.92e+00  -1.4 1.00e+00 1.00e+00f  1
   7  9.9745643e-02 0.00e+00 2.73e-01  -2.5 2.74e-01  -1.0 1.00e+00 1.00e+00h  1
   8  6.3830887e-02 0.00e+00 1.46e-01  -2.5 6.48e-01  -1.5 1.00e+00 1.00e+00h  1
   9  7.7058199e-02 0.00e+00 5.73e-01  -2.5 2.98e+00    -  1.00e+00 1.00e+00H  1
iter    objective    inf_pr   inf_du lg(mu)  ||d||  lg(rg) alpha_du alpha_pr  ls
  10  1.3591305e-02 0.00e+00 3.23e-01  -2.5 1.16e+00  -2.0 1.00e+00 1.00e+00f  1
  11  8.1853219e-02 0.00e+00 1.32e-01  -2.5 4.71e+00    -  1.00e+00 1.00e+00H  1
  12  6.1942704e-02 0.00e+00 1.10e-01  -2.5 8.71e-01  -1.5 1.00e+00 1.25e-01f  4
  13  6.9884174e-01 0.00e+00 2.97e+00  -2.5 1.95e+00  -2.0 1.00e+00 1.00e+00H  1
  14  1.5083398e-01 0.00e+00 1.11e+00  -2.5 3.72e-01   0.2 1.00e+00 1.00e+00F  1
  15  2.0581661e-02 0.00e+00 1.01e-01  -2.5 1.67e-01  -0.3 1.00e+00 1.00e+00F  1
  16  1.0859474e-02 0.00e+00 3.52e-02  -2.5 1.46e+00    -  1.00e+00 1.00e+00f  1
  17  9.4793518e-03 0.00e+00 1.31e-02  -2.5 1.22e+00    -  1.00e+00 1.00e+00h  1
  18  9.0311236e-03 0.00e+00 6.01e-03  -3.8 7.47e-01    -  9.77e-01 1.00e+00h  1
  19  8.6727018e-03 0.00e+00 9.05e-03  -3.8 8.61e-01    -  1.00e+00 1.00e+00h  1
iter    objective    inf_pr   inf_du lg(mu)  ||d||  lg(rg) alpha_du alpha_pr  ls
  20  1.1528476e-02 0.00e+00 3.31e-01  -3.8 1.82e+00    -  1.00e+00 1.00e+00H  1
  21  7.8525280e-03 0.00e+00 6.03e-02  -3.8 6.30e-01    -  1.00e+00 1.00e+00h  1
  22  7.5037711e-03 0.00e+00 1.12e-03  -3.8 2.10e-01    -  1.00e+00 1.00e+00h  1
  23  7.4987363e-03 0.00e+00 6.97e-04  -5.7 4.88e-02    -  1.00e+00 1.00e+00h  1
  24  7.4984852e-03 0.00e+00 1.39e-04  -5.7 1.13e-02    -  1.00e+00 1.00e+00h  1
  25  7.4984657e-03 0.00e+00 3.13e-05  -5.7 3.36e-03    -  1.00e+00 1.00e+00h  1
  26  7.4984640e-03 0.00e+00 7.81e-06  -5.7 9.00e-04    -  1.00e+00 1.00e+00h  1
  27  7.4984637e-03 0.00e+00 3.65e-06  -8.6 4.36e-04    -  1.00e+00 1.00e+00h  1
  28  7.4984637e-03 0.00e+00 9.51e-07  -8.6 1.12e-04    -  1.00e+00 1.00e+00h  1
  29  7.4984637e-03 0.00e+00 2.49e-07  -8.6 2.95e-05    -  1.00e+00 1.00e+00h  1
iter    objective    inf_pr   inf_du lg(mu)  ||d||  lg(rg) alpha_du alpha_pr  ls
  30  7.4984637e-03 0.00e+00 6.52e-08  -8.6 7.72e-06    -  1.00e+00 1.00e+00h  1
  31  7.4984637e-03 0.00e+00 1.71e-08  -8.6 2.02e-06    -  1.00e+00 1.00e+00h  1
  32  7.4984637e-03 0.00e+00 5.87e-09  -9.0 6.68e-07    -  1.00e+00 1.00e+00h  1

Number of Iterations....: 32

                                   (scaled)                 (unscaled)
Objective...............:   7.4984636572395123e-03    7.4984636572395123e-03
Dual infeasibility......:   5.8738491813249419e-09    5.8738491813249419e-09
Constraint violation....:   0.0000000000000000e+00    0.0000000000000000e+00
Complementarity.........:   9.0909113924638224e-10    9.0909113924638224e-10
Overall NLP error.......:   5.8738491813249419e-09    5.8738491813249419e-09


Number of objective function evaluations             = 50
Number of objective gradient evaluations             = 33
Number of equality constraint evaluations            = 0
Number of inequality constraint evaluations          = 50
Number of equality constraint Jacobian evaluations   = 0
Number of inequality constraint Jacobian evaluations = 33
Number of Lagrangian Hessian evaluations             = 32
Total CPU secs in IPOPT (w/o function evaluations)   =      0.013
Total CPU secs in NLP function evaluations           =      0.010

EXIT: Optimal Solution Found.
Note: The following floating-point exceptions are signalling: IEEE_INVALID_FLAG IEEE_DIVIDE_BY_ZERO

************************ CUTEst statistics ************************


 Package used            :  IPOPT
 Problem                 :  HS70      
 # variables             =               4
 # constraints           =               1
 # objective functions   =        0.8400000E+02
 # objective gradients   =        0.3400000E+02
 # objective Hessians    =        0.3300000E+02
 # Hessian-vector prdct  =        0.0000000E+00
 # constraints functions =        0.8500000E+02
 # constraints gradients =        0.3500000E+02
 # constraints Hessians  =        0.3300000E+02
 Exit code               =               0
 Final f                 =   0.7498464E-02
 Set up time             =            0.00 seconds
 Solve time              =            0.06 seconds


******************************************************************

System Time =       0.0170000009 s.
